
Gurobi 8.1.1 (win64) logging started 11/26/19 22:02:59

Changed value of parameter LogFile to logs/miss/rlt/miss-05-15-0.log
   Prev: gurobi.log  Default: 
Changed value of parameter LogToConsole to 0
   Prev: 1  Min: 0  Max: 1  Default: 1
Changed value of parameter TimeLimit to 3600.0
   Prev: 1e+100  Min: 0.0  Max: 1e+100  Default: 1e+100
Optimize a model with 10463 rows, 3570 columns and 24739 nonzeros
Variable types: 0 continuous, 3570 integer (84 binary)
Coefficient statistics:
  Matrix range     [1e+00, 1e+00]
  Objective range  [1e+00, 1e+00]
  Bounds range     [1e+00, 1e+00]
  RHS range        [1e+00, 1e+00]
Found heuristic solution: objective 5.0000000
Presolve time: 0.44s
Presolved: 10463 rows, 3570 columns, 24739 nonzeros
Variable types: 0 continuous, 3570 integer (3570 binary)

Root relaxation: objective 1.556962e+00, 733 iterations, 0.24 seconds

    Nodes    |    Current Node    |     Objective Bounds      |     Work
 Expl Unexpl |  Obj  Depth IntInf | Incumbent    BestBd   Gap | It/Node Time

     0     0    1.55696    0  396    5.00000    1.55696  68.9%     -    1s
H    0     0                       4.0000000    1.55696  61.1%     -    1s
     0     0    1.85875    0  283    4.00000    1.85875  53.5%     -    2s
     0     0    1.86146    0  310    4.00000    1.86146  53.5%     -    2s
     0     0    1.91662    0  285    4.00000    1.91662  52.1%     -    3s
     0     0    1.96255    0  312    4.00000    1.96255  50.9%     -    3s
     0     0    1.97710    0  273    4.00000    1.97710  50.6%     -    3s
     0     0    1.97799    0  330    4.00000    1.97799  50.6%     -    4s
     0     0    2.00704    0  311    4.00000    2.00704  49.8%     -    4s
     0     0    2.00902    0  298    4.00000    2.00902  49.8%     -    4s
     0     0    2.02360    0  266    4.00000    2.02360  49.4%     -    4s
     0     0    2.02495    0  266    4.00000    2.02495  49.4%     -    4s
     0     0    2.03911    0  276    4.00000    2.03911  49.0%     -    4s
     0     0    2.04128    0  248    4.00000    2.04128  49.0%     -    4s
     0     0    2.05649    0  267    4.00000    2.05649  48.6%     -    4s
     0     0    2.05746    0  289    4.00000    2.05746  48.6%     -    5s
     0     0    2.05775    0  287    4.00000    2.05775  48.6%     -    5s
     0     0    2.05797    0  291    4.00000    2.05797  48.6%     -    5s
     0     0    2.06989    0  284    4.00000    2.06989  48.3%     -    5s
     0     0    2.07156    0  296    4.00000    2.07156  48.2%     -    5s
     0     0    2.07198    0  314    4.00000    2.07198  48.2%     -    5s
     0     0    2.07878    0  300    4.00000    2.07878  48.0%     -    5s
     0     0    2.07983    0  300    4.00000    2.07983  48.0%     -    5s
     0     0    2.07996    0  302    4.00000    2.07996  48.0%     -    5s
     0     0    2.08568    0  305    4.00000    2.08568  47.9%     -    5s
     0     0    2.08661    0  306    4.00000    2.08661  47.8%     -    5s
     0     0    2.08667    0  285    4.00000    2.08667  47.8%     -    5s
     0     0    2.09071    0  282    4.00000    2.09071  47.7%     -    6s
     0     0    2.09154    0  297    4.00000    2.09154  47.7%     -    6s
     0     0    2.09164    0  289    4.00000    2.09164  47.7%     -    6s
     0     0    2.09410    0  278    4.00000    2.09410  47.6%     -    6s
     0     0    2.09459    0  282    4.00000    2.09459  47.6%     -    6s
     0     0    2.09466    0  289    4.00000    2.09466  47.6%     -    6s
     0     0    2.09699    0  304    4.00000    2.09699  47.6%     -    6s
     0     0    2.09731    0  300    4.00000    2.09731  47.6%     -    6s
     0     0    2.09750    0  313    4.00000    2.09750  47.6%     -    6s
     0     0    2.09969    0  298    4.00000    2.09969  47.5%     -    6s
     0     0    2.10017    0  308    4.00000    2.10017  47.5%     -    7s
     0     0    2.10024    0  309    4.00000    2.10024  47.5%     -    7s
     0     0    2.10162    0  302    4.00000    2.10162  47.5%     -    7s
     0     0    2.10177    0  308    4.00000    2.10177  47.5%     -    7s
     0     0    2.10357    0  326    4.00000    2.10357  47.4%     -    7s
     0     0    2.10357    0  326    4.00000    2.10357  47.4%     -    7s
     0     2    2.10357    0  326    4.00000    2.10357  47.4%     -   15s
    59    50    2.95685   14  243    4.00000    2.13622  46.6%   274   20s

Cutting planes:
  Gomory: 4
  MIR: 14
  Zero half: 64
  Mod-K: 4

Explored 166 nodes (37048 simplex iterations) in 22.96 seconds
Thread count was 4 (of 4 available processors)

Solution count 2: 4 5 

Optimal solution found (tolerance 1.00e-04)
Best objective 4.000000000000e+00, best bound 4.000000000000e+00, gap 0.0000%
